\* cutting_stock *\
Minimize
OBJ: configurations_0 + configurations_1 + configurations_10
 + configurations_11 + configurations_12 + configurations_13
 + configurations_14 + configurations_15 + configurations_16
 + configurations_17 + configurations_18 + configurations_19
 + configurations_2 + configurations_20 + configurations_21
 + configurations_22 + configurations_23 + configurations_24
 + configurations_25 + configurations_26 + configurations_27
 + configurations_28 + configurations_29 + configurations_3
 + configurations_30 + configurations_31 + configurations_32
 + configurations_4 + configurations_5 + configurations_6 + configurations_7
 + configurations_8 + configurations_9
Subject To
_C1: 3 configurations_0 + configurations_10 + configurations_12
 + configurations_14 + configurations_16 + configurations_18
 + configurations_20 + configurations_22 + configurations_24
 + configurations_26 + configurations_28 + configurations_30
 + configurations_32 >= 12
_C10: configurations_9 >= 12
_C2: 3 configurations_1 + configurations_11 + configurations_13
 + configurations_15 + configurations_17 + configurations_19
 + configurations_21 + configurations_23 + configurations_25
 + configurations_27 + configurations_29 + configurations_31 >= 12
_C3: 2 configurations_2 >= 12
_C4: 2 configurations_3 >= 10
_C5: 2 configurations_4 >= 11
_C6: configurations_10 + configurations_11 + configurations_13
 + configurations_15 + configurations_17 + configurations_19
 + configurations_21 + configurations_23 + configurations_25
 + configurations_27 + configurations_29 + configurations_31
 + configurations_5 >= 11
_C7: configurations_12 + configurations_14 + configurations_16
 + configurations_18 + configurations_20 + configurations_22
 + configurations_24 + configurations_26 + configurations_28
 + configurations_30 + configurations_32 + configurations_6 >= 10
_C8: configurations_7 >= 10
_C9: configurations_8 >= 11
Bounds
0 <= configurations_0
0 <= configurations_1
0 <= configurations_10
0 <= configurations_11
0 <= configurations_12
0 <= configurations_13
0 <= configurations_14
0 <= configurations_15
0 <= configurations_16
0 <= configurations_17
0 <= configurations_18
0 <= configurations_19
0 <= configurations_2
0 <= configurations_20
0 <= configurations_21
0 <= configurations_22
0 <= configurations_23
0 <= configurations_24
0 <= configurations_25
0 <= configurations_26
0 <= configurations_27
0 <= configurations_28
0 <= configurations_29
0 <= configurations_3
0 <= configurations_30
0 <= configurations_31
0 <= configurations_32
0 <= configurations_4
0 <= configurations_5
0 <= configurations_6
0 <= configurations_7
0 <= configurations_8
0 <= configurations_9
Generals
configurations_0
configurations_1
configurations_10
configurations_11
configurations_12
configurations_13
configurations_14
configurations_15
configurations_16
configurations_17
configurations_18
configurations_19
configurations_2
configurations_20
configurations_21
configurations_22
configurations_23
configurations_24
configurations_25
configurations_26
configurations_27
configurations_28
configurations_29
configurations_3
configurations_30
configurations_31
configurations_32
configurations_4
configurations_5
configurations_6
configurations_7
configurations_8
configurations_9
End
